64248
[273, 234, 233, 235, 237, 271, 272, 236, 240, 239, 238, 268, 269, 270, 242, 241, 195, 193, 194, 169, 168, 173, 127, 171, 170, 172, 178, 188, 189, 186, 177, 175, 174, 176, 126, 122, 112, 110, 111, 57, 59, 56, 38, 43, 44, 45, 40, 42, 39, 41, 36, 37, 35, 34, 31, 30, 29, 33, 32, 65, 67, 66, 68, 69, 70, 73, 72, 71, 76, 74, 79, 75, 77, 78, 81, 21, 22, 20, 17, 19, 18, 16, 14, 15, 23, 24, 25, 26, 27, 28, 62, 63, 104, 64, 61, 106, 105, 107, 108, 109, 60, 58, 46, 47, 48, 49, 50, 51, 52, 53, 55, 54, 115, 113, 114, 116, 118, 119, 117, 121, 120, 124, 123, 125, 179, 180, 181, 182, 183, 184, 185, 255, 253, 259, 260, 258, 257, 256, 167, 166, 196, 197, 262, 265, 264, 263, 261, 266, 267, 247, 248, 243, 244, 245, 246, 192, 190, 191, 249, 250, 187, 252, 251, 254, 80, 83, 82, 97, 94, 95, 86, 98, 99, 100, 101, 96, 138, 139, 160, 159, 158, 157, 156, 142, 141, 140, 210, 209, 207, 206, 203, 204, 205, 222, 223, 225, 226, 298, 224, 279, 282, 281, 280, 277, 278, 275, 274, 276, 231, 232, 229, 230, 228, 202, 227, 199, 201, 198, 200, 165, 164, 130, 129, 103, 128, 131, 102, 132, 134, 135, 137, 136, 133, 163, 162, 161, 283, 284, 285, 218, 219, 208, 221, 220, 211, 212, 217, 215, 216, 286, 287, 288, 290, 289, 291, 292, 294, 293, 296, 295, 297, 214, 213, 155, 154, 153, 144, 147, 146, 148, 149, 150, 151, 152, 145, 143, 92, 91, 6, 4, 5, 1, 2, 3, 0, 7, 8, 9, 10, 11, 12, 13, 87, 89, 90, 88, 85, 84, 93]
